c generated by sgen
p cnf 93 196
-2 -3 -4 0
-1 -3 -4 0
-1 -2 -4 0
-1 -2 -3 0
-6 -7 -8 0
-5 -7 -8 0
-5 -6 -8 0
-5 -6 -7 0
-10 -11 -12 0
-9 -11 -12 0
-9 -10 -12 0
-9 -10 -11 0
-14 -15 -16 0
-13 -15 -16 0
-13 -14 -16 0
-13 -14 -15 0
-18 -19 -20 0
-17 -19 -20 0
-17 -18 -20 0
-17 -18 -19 0
-22 -23 -24 0
-21 -23 -24 0
-21 -22 -24 0
-21 -22 -23 0
-26 -27 -28 0
-25 -27 -28 0
-25 -26 -28 0
-25 -26 -27 0
-30 -31 -32 0
-29 -31 -32 0
-29 -30 -32 0
-29 -30 -31 0
-34 -35 -36 0
-33 -35 -36 0
-33 -34 -36 0
-33 -34 -35 0
-38 -39 -40 0
-37 -39 -40 0
-37 -38 -40 0
-37 -38 -39 0
-42 -43 -44 0
-41 -43 -44 0
-41 -42 -44 0
-41 -42 -43 0
-46 -47 -48 0
-45 -47 -48 0
-45 -46 -48 0
-45 -46 -47 0
-50 -51 -52 0
-49 -51 -52 0
-49 -50 -52 0
-49 -50 -51 0
-54 -55 -56 0
-53 -55 -56 0
-53 -54 -56 0
-53 -54 -55 0
-58 -59 -60 0
-57 -59 -60 0
-57 -58 -60 0
-57 -58 -59 0
-62 -63 -64 0
-61 -63 -64 0
-61 -62 -64 0
-61 -62 -63 0
-66 -67 -68 0
-65 -67 -68 0
-65 -66 -68 0
-65 -66 -67 0
-70 -71 -72 0
-69 -71 -72 0
-69 -70 -72 0
-69 -70 -71 0
-74 -75 -76 0
-73 -75 -76 0
-73 -74 -76 0
-73 -74 -75 0
-78 -79 -80 0
-77 -79 -80 0
-77 -78 -80 0
-77 -78 -79 0
-82 -83 -84 0
-81 -83 -84 0
-81 -82 -84 0
-81 -82 -83 0
-86 -87 -88 0
-85 -87 -88 0
-85 -86 -88 0
-85 -86 -87 0
-89 -90 -91 0
-89 -90 -92 0
-89 -90 -93 0
-89 -91 -92 0
-89 -91 -93 0
-89 -92 -93 0
-90 -91 -92 0
-90 -91 -93 0
-90 -92 -93 0
-91 -92 -93 0
26 9 84 0
41 9 84 0
41 26 84 0
41 26 9 0
69 75 53 0
83 75 53 0
83 69 53 0
83 69 75 0
86 13 2 0
17 13 2 0
17 86 2 0
17 86 13 0
46 89 76 0
28 89 76 0
28 46 76 0
28 46 89 0
34 20 57 0
81 20 57 0
81 34 57 0
81 34 20 0
56 3 36 0
47 3 36 0
47 56 36 0
47 56 3 0
15 21 35 0
31 21 35 0
31 15 35 0
31 15 21 0
6 93 82 0
50 93 82 0
50 6 82 0
50 6 93 0
5 38 42 0
78 38 42 0
78 5 42 0
78 5 38 0
74 88 30 0
67 88 30 0
67 74 30 0
67 74 88 0
19 80 24 0
10 80 24 0
10 19 24 0
10 19 80 0
8 12 70 0
58 12 70 0
58 8 70 0
58 8 12 0
60 23 52 0
63 23 52 0
63 60 52 0
63 60 23 0
39 68 71 0
4 68 71 0
4 39 71 0
4 39 68 0
18 61 66 0
91 61 66 0
91 18 66 0
91 18 61 0
11 48 14 0
65 48 14 0
65 11 14 0
65 11 48 0
16 79 92 0
59 79 92 0
59 16 92 0
59 16 79 0
85 29 27 0
77 29 27 0
77 85 27 0
77 85 29 0
73 51 44 0
1 51 44 0
1 73 44 0
1 73 51 0
45 64 25 0
40 64 25 0
40 45 25 0
40 45 64 0
62 72 33 0
43 72 33 0
43 62 33 0
43 62 72 0
7 22 87 0
55 22 87 0
55 7 87 0
55 7 22 0
90 32 49 0
90 32 54 0
90 32 37 0
90 49 54 0
90 49 37 0
90 54 37 0
32 49 54 0
32 49 37 0
32 54 37 0
49 54 37 0
